p edge 24 51
e 1 6
e 1 17
e 1 21
e 1 24
e 2 10
e 2 21
e 2 9
e 3 20
e 3 23
e 3 18
e 3 19
e 4 16
e 4 6
e 4 7
e 4 5
e 4 17
e 5 13
e 5 8
e 5 6
e 5 7
e 5 9
e 5 17
e 5 23
e 6 17
e 6 7
e 6 9
e 7 17
e 7 18
e 7 11
e 7 22
e 8 16
e 9 15
e 9 19
e 9 17
e 9 24
e 10 13
e 10 16
e 10 24
e 10 22
e 10 21
e 11 18
e 11 19
e 12 23
e 12 16
e 12 19
e 13 19
e 14 24
e 16 24
e 16 21
e 17 19
e 21 22
